NAME : gaussian_random29.4144.tour
COMMENT : Length = 4144
COMMENT : Found by LKH [Keld Helsgaun] Sun Jul  7 17:42:59 2024
TYPE : TOUR
DIMENSION : 29
TOUR_SECTION
1
3
28
13
9
25
24
2
11
20
27
14
17
26
8
18
22
29
19
12
10
5
7
23
21
6
15
4
16
-1
EOF
